%CHK=output.chk
#N CCSD(T)/cc-pVTZ SP Geom=Connectivity 

H2+

1 2
H 
H 1 B1

B1 0.700000000

1 2 1
2 1 1

