#N CCSD(T)/cc-pVTZ SP Geom=Connectivity 

H2

0 1
H 
H 1 B1

B1 0.700000000

1 2 1
2 1 1

